
Gurobi 13.0.1 (linux64) logging started Sat Mar 21 22:36:09 2026

Set parameter LogFile to value "logs/75B_3F_robust_gamma_-1_theta_0d05199999999999999_2026-03-21_22h35m40s.log"
Set parameter MIPGap to value 0.005
Set parameter OptimalityTol to value 0.005
Gurobi Optimizer version 13.0.1 build v13.0.1rc0 (linux64 - "openSUSE Tumbleweed")

CPU model: Intel(R) Core(TM) i7-10610U CPU @ 1.80GHz, instruction set [SSE2|AVX|AVX2]
Thread count: 4 physical cores, 8 logical processors, using up to 8 threads

Non-default parameters:
TimeLimit  3600
SoftMemLimit  12
MIPGap  0.005
OptimalityTol  0.005

Optimize a model with 44845 rows, 867096 columns and 2625436 nonzeros (Max)
Model fingerprint: 0xc454ad12
Model has 832586 linear objective coefficients
Variable types: 12096 continuous, 855000 integer (855000 binary)
Coefficient statistics:
  Matrix range     [3e-05, 1e+05]
  Objective range  [1e+00, 3e+03]
  Bounds range     [1e+00, 1e+05]
  RHS range        [1e-02, 1e+05]

Found heuristic solution: objective 1.000000e+30
Presolve removed 0 rows and 760 columns
Presolve time: 0.12s

Explored 0 nodes (0 simplex iterations) in 0.30 seconds (0.27 work units)
Thread count was 1 (of 8 available processors)

Solution count 2: 1e+30 1e+30 
No other solutions better than 0

Model is unbounded
Best objective 1.000000000000e+30, best bound -, gap -
